% Auto-generated by scripts/generate_dzn.py
% problem_type   = polyominoes
% instance       = polyominoes_67
% source_json    = instances_json/0_low_blowup/polyominoes_67.json
% blowup         = 0.6022471910112359
% representation = DFA

mode = 0;

size = 6;
tiles = 6;
n_expressions = 6;
Q = 81;
S = 7;
q0 = [1, 1, 1, 1, 1, 1];
F = [{57}, {27}, {49}, {26}, {27}, {2}];
weights = [9, 4, 4, 5, 9, 10, 10, 2, 4, 5, 1, 8, 3, 5, 9, 3, 5, 3, 2, 3, 9, 7, 9, 3, 3, 5, 1, 10, 8, 4, 2, 2, 9, 3, 1, 4];
d_dfa = array3d(1..6, 1..81, 1..7, [
  % k = 1
    2, 1, 1, 1, 1, 1, 1,
    4, 3, 3, 3, 3, 3, 3,
    5, 61, 61, 61, 61, 61, 61,
    6, 5, 5, 5, 5, 5, 5,
    7, 61, 61, 61, 61, 61, 61,
    9, 8, 8, 8, 8, 8, 8,
    61, 10, 10, 10, 10, 10, 10,
    61, 11, 11, 11, 11, 11, 11,
    61, 12, 12, 12, 12, 12, 12,
    61, 13, 13, 13, 13, 13, 13,
    61, 14, 14, 14, 14, 14, 14,
    61, 15, 15, 15, 15, 15, 15,
    61, 16, 16, 16, 16, 16, 16,
    61, 17, 17, 17, 17, 17, 17,
    61, 18, 18, 18, 18, 18, 18,
    19, 61, 61, 61, 61, 61, 61,
    21, 20, 20, 20, 20, 20, 20,
    22, 61, 61, 61, 61, 61, 61,
    23, 61, 61, 61, 61, 61, 61,
    24, 61, 61, 61, 61, 61, 61,
    25, 61, 61, 61, 61, 61, 61,
    26, 61, 61, 61, 61, 61, 61,
    27, 61, 61, 61, 61, 61, 61,
    28, 61, 61, 61, 61, 61, 61,
    29, 28, 28, 28, 28, 28, 28,
    30, 61, 61, 61, 61, 61, 61,
    31, 61, 61, 61, 61, 61, 61,
    61, 32, 32, 32, 32, 32, 32,
    61, 33, 33, 33, 33, 33, 33,
    34, 61, 61, 61, 61, 61, 61,
    61, 35, 35, 35, 35, 35, 35,
    61, 36, 36, 36, 36, 36, 36,
    61, 37, 37, 37, 37, 37, 37,
    61, 38, 38, 38, 38, 38, 38,
    61, 39, 39, 39, 39, 39, 39,
    61, 40, 40, 40, 40, 40, 40,
    61, 41, 41, 41, 41, 41, 41,
    61, 42, 42, 42, 42, 42, 42,
    61, 43, 43, 43, 43, 43, 43,
    61, 44, 44, 44, 44, 44, 44,
    61, 45, 45, 45, 45, 45, 45,
    61, 46, 46, 46, 46, 46, 46,
    47, 61, 61, 61, 61, 61, 61,
    48, 61, 61, 61, 61, 61, 61,
    49, 48, 48, 48, 48, 48, 48,
    50, 61, 61, 61, 61, 61, 61,
    51, 61, 61, 61, 61, 61, 61,
    52, 61, 61, 61, 61, 61, 61,
    53, 61, 61, 61, 61, 61, 61,
    54, 51, 51, 51, 51, 51, 51,
    55, 61, 61, 61, 61, 61, 61,
    56, 61, 61, 61, 61, 61, 61,
    61, 56, 56, 56, 56, 56, 56,
    61, 55, 55, 55, 55, 55, 55,
    57, 61, 61, 61, 61, 61, 61,
    61, 58, 58, 58, 58, 58, 58,
    61, 57, 57, 57, 57, 57, 57,
    61, 59, 59, 59, 59, 59, 59,
    61, 60, 60, 60, 60, 60, 60,
    61, 47, 47, 47, 47, 47, 47,
    61, 61, 61, 61, 61, 61, 61,
    0, 0, 0, 0, 0, 0, 0,
    0, 0, 0, 0, 0, 0, 0,
    0, 0, 0, 0, 0, 0, 0,
    0, 0, 0, 0, 0, 0, 0,
    0, 0, 0, 0, 0, 0, 0,
    0, 0, 0, 0, 0, 0, 0,
    0, 0, 0, 0, 0, 0, 0,
    0, 0, 0, 0, 0, 0, 0,
    0, 0, 0, 0, 0, 0, 0,
    0, 0, 0, 0, 0, 0, 0,
    0, 0, 0, 0, 0, 0, 0,
    0, 0, 0, 0, 0, 0, 0,
    0, 0, 0, 0, 0, 0, 0,
    0, 0, 0, 0, 0, 0, 0,
    0, 0, 0, 0, 0, 0, 0,
    0, 0, 0, 0, 0, 0, 0,
    0, 0, 0, 0, 0, 0, 0,
    0, 0, 0, 0, 0, 0, 0,
    0, 0, 0, 0, 0, 0, 0,
    0, 0, 0, 0, 0, 0, 0,

  % k = 2
    1, 2, 1, 1, 1, 1, 1,
    3, 4, 3, 3, 3, 3, 3,
    5, 36, 5, 5, 5, 5, 5,
    6, 7, 6, 6, 6, 6, 6,
    8, 36, 8, 8, 8, 8, 8,
    9, 36, 9, 9, 9, 9, 9,
    10, 36, 10, 10, 10, 10, 10,
    11, 36, 11, 11, 11, 11, 11,
    12, 36, 12, 12, 12, 12, 12,
    13, 36, 13, 13, 13, 13, 13,
    14, 36, 14, 14, 14, 14, 14,
    15, 36, 15, 15, 15, 15, 15,
    16, 36, 16, 16, 16, 16, 16,
    17, 18, 17, 17, 17, 17, 17,
    19, 20, 19, 19, 19, 19, 19,
    21, 36, 21, 21, 21, 21, 21,
    36, 18, 36, 36, 36, 36, 36,
    36, 22, 36, 36, 36, 36, 36,
    36, 23, 36, 36, 36, 36, 36,
    36, 24, 36, 36, 36, 36, 36,
    20, 24, 20, 20, 20, 20, 20,
    25, 36, 25, 25, 25, 25, 25,
    36, 26, 36, 36, 36, 36, 36,
    36, 27, 36, 36, 36, 36, 36,
    28, 36, 28, 28, 28, 28, 28,
    29, 27, 29, 29, 29, 29, 29,
    27, 36, 27, 27, 27, 27, 27,
    30, 36, 30, 30, 30, 30, 30,
    31, 36, 31, 31, 31, 31, 31,
    32, 36, 32, 32, 32, 32, 32,
    33, 36, 33, 33, 33, 33, 33,
    20, 36, 20, 20, 20, 20, 20,
    34, 36, 34, 34, 34, 34, 34,
    35, 36, 35, 35, 35, 35, 35,
    24, 27, 24, 24, 24, 24, 24,
    36, 36, 36, 36, 36, 36, 36,
    0, 0, 0, 0, 0, 0, 0,
    0, 0, 0, 0, 0, 0, 0,
    0, 0, 0, 0, 0, 0, 0,
    0, 0, 0, 0, 0, 0, 0,
    0, 0, 0, 0, 0, 0, 0,
    0, 0, 0, 0, 0, 0, 0,
    0, 0, 0, 0, 0, 0, 0,
    0, 0, 0, 0, 0, 0, 0,
    0, 0, 0, 0, 0, 0, 0,
    0, 0, 0, 0, 0, 0, 0,
    0, 0, 0, 0, 0, 0, 0,
    0, 0, 0, 0, 0, 0, 0,
    0, 0, 0, 0, 0, 0, 0,
    0, 0, 0, 0, 0, 0, 0,
    0, 0, 0, 0, 0, 0, 0,
    0, 0, 0, 0, 0, 0, 0,
    0, 0, 0, 0, 0, 0, 0,
    0, 0, 0, 0, 0, 0, 0,
    0, 0, 0, 0, 0, 0, 0,
    0, 0, 0, 0, 0, 0, 0,
    0, 0, 0, 0, 0, 0, 0,
    0, 0, 0, 0, 0, 0, 0,
    0, 0, 0, 0, 0, 0, 0,
    0, 0, 0, 0, 0, 0, 0,
    0, 0, 0, 0, 0, 0, 0,
    0, 0, 0, 0, 0, 0, 0,
    0, 0, 0, 0, 0, 0, 0,
    0, 0, 0, 0, 0, 0, 0,
    0, 0, 0, 0, 0, 0, 0,
    0, 0, 0, 0, 0, 0, 0,
    0, 0, 0, 0, 0, 0, 0,
    0, 0, 0, 0, 0, 0, 0,
    0, 0, 0, 0, 0, 0, 0,
    0, 0, 0, 0, 0, 0, 0,
    0, 0, 0, 0, 0, 0, 0,
    0, 0, 0, 0, 0, 0, 0,
    0, 0, 0, 0, 0, 0, 0,
    0, 0, 0, 0, 0, 0, 0,
    0, 0, 0, 0, 0, 0, 0,
    0, 0, 0, 0, 0, 0, 0,
    0, 0, 0, 0, 0, 0, 0,
    0, 0, 0, 0, 0, 0, 0,
    0, 0, 0, 0, 0, 0, 0,
    0, 0, 0, 0, 0, 0, 0,
    0, 0, 0, 0, 0, 0, 0,

  % k = 3
    1, 1, 2, 1, 1, 1, 1,
    4, 4, 3, 4, 4, 4, 4,
    6, 6, 5, 6, 6, 6, 6,
    7, 7, 51, 7, 7, 7, 7,
    8, 8, 51, 8, 8, 8, 8,
    9, 9, 51, 9, 9, 9, 9,
    10, 10, 51, 10, 10, 10, 10,
    11, 11, 51, 11, 11, 11, 11,
    12, 12, 51, 12, 12, 12, 12,
    13, 13, 51, 13, 13, 13, 13,
    14, 14, 51, 14, 14, 14, 14,
    15, 15, 51, 15, 15, 15, 15,
    17, 17, 16, 17, 17, 17, 17,
    18, 18, 51, 18, 18, 18, 18,
    19, 19, 51, 19, 19, 19, 19,
    51, 51, 20, 51, 51, 51, 51,
    21, 21, 51, 21, 21, 21, 21,
    23, 23, 22, 23, 23, 23, 23,
    51, 51, 24, 51, 51, 51, 51,
    51, 51, 25, 51, 51, 51, 51,
    51, 51, 16, 51, 51, 51, 51,
    51, 51, 26, 51, 51, 51, 51,
    51, 51, 27, 51, 51, 51, 51,
    51, 51, 28, 51, 51, 51, 51,
    29, 29, 51, 29, 29, 29, 29,
    31, 31, 30, 31, 31, 31, 31,
    51, 51, 32, 51, 51, 51, 51,
    33, 33, 51, 33, 33, 33, 33,
    34, 34, 51, 34, 34, 34, 34,
    35, 35, 51, 35, 35, 35, 35,
    36, 36, 51, 36, 36, 36, 36,
    31, 31, 51, 31, 31, 31, 31,
    37, 37, 51, 37, 37, 37, 37,
    38, 38, 51, 38, 38, 38, 38,
    39, 39, 51, 39, 39, 39, 39,
    40, 40, 51, 40, 40, 40, 40,
    41, 41, 51, 41, 41, 41, 41,
    42, 42, 51, 42, 42, 42, 42,
    43, 43, 51, 43, 43, 43, 43,
    44, 44, 51, 44, 44, 44, 44,
    45, 45, 51, 45, 45, 45, 45,
    51, 51, 46, 51, 51, 51, 51,
    47, 47, 51, 47, 47, 47, 47,
    46, 46, 51, 46, 46, 46, 46,
    42, 42, 46, 42, 42, 42, 42,
    51, 51, 48, 51, 51, 51, 51,
    50, 50, 49, 50, 50, 50, 50,
    51, 51, 49, 51, 51, 51, 51,
    49, 49, 51, 49, 49, 49, 49,
    48, 48, 51, 48, 48, 48, 48,
    51, 51, 51, 51, 51, 51, 51,
    0, 0, 0, 0, 0, 0, 0,
    0, 0, 0, 0, 0, 0, 0,
    0, 0, 0, 0, 0, 0, 0,
    0, 0, 0, 0, 0, 0, 0,
    0, 0, 0, 0, 0, 0, 0,
    0, 0, 0, 0, 0, 0, 0,
    0, 0, 0, 0, 0, 0, 0,
    0, 0, 0, 0, 0, 0, 0,
    0, 0, 0, 0, 0, 0, 0,
    0, 0, 0, 0, 0, 0, 0,
    0, 0, 0, 0, 0, 0, 0,
    0, 0, 0, 0, 0, 0, 0,
    0, 0, 0, 0, 0, 0, 0,
    0, 0, 0, 0, 0, 0, 0,
    0, 0, 0, 0, 0, 0, 0,
    0, 0, 0, 0, 0, 0, 0,
    0, 0, 0, 0, 0, 0, 0,
    0, 0, 0, 0, 0, 0, 0,
    0, 0, 0, 0, 0, 0, 0,
    0, 0, 0, 0, 0, 0, 0,
    0, 0, 0, 0, 0, 0, 0,
    0, 0, 0, 0, 0, 0, 0,
    0, 0, 0, 0, 0, 0, 0,
    0, 0, 0, 0, 0, 0, 0,
    0, 0, 0, 0, 0, 0, 0,
    0, 0, 0, 0, 0, 0, 0,
    0, 0, 0, 0, 0, 0, 0,
    0, 0, 0, 0, 0, 0, 0,
    0, 0, 0, 0, 0, 0, 0,
    0, 0, 0, 0, 0, 0, 0,

  % k = 4
    1, 1, 1, 2, 1, 1, 1,
    3, 3, 3, 4, 3, 3, 3,
    5, 5, 5, 6, 5, 5, 5,
    7, 7, 7, 8, 7, 7, 7,
    9, 9, 9, 81, 9, 9, 9,
    81, 81, 81, 10, 81, 81, 81,
    11, 11, 11, 81, 11, 11, 11,
    81, 81, 81, 12, 81, 81, 81,
    13, 13, 13, 81, 13, 13, 13,
    81, 81, 81, 14, 81, 81, 81,
    15, 15, 15, 81, 15, 15, 15,
    81, 81, 81, 16, 81, 81, 81,
    17, 17, 17, 81, 17, 17, 17,
    81, 81, 81, 18, 81, 81, 81,
    19, 19, 19, 81, 19, 19, 19,
    81, 81, 81, 20, 81, 81, 81,
    21, 21, 21, 81, 21, 21, 21,
    81, 81, 81, 22, 81, 81, 81,
    23, 23, 23, 81, 23, 23, 23,
    24, 24, 24, 81, 24, 24, 24,
    81, 81, 81, 25, 81, 81, 81,
    81, 81, 81, 26, 81, 81, 81,
    27, 27, 27, 28, 27, 27, 27,
    29, 29, 29, 26, 29, 29, 29,
    30, 30, 30, 10, 30, 30, 30,
    26, 26, 26, 81, 26, 26, 26,
    81, 81, 81, 28, 81, 81, 81,
    31, 31, 31, 81, 31, 31, 31,
    32, 32, 32, 81, 32, 32, 32,
    33, 33, 33, 81, 33, 33, 33,
    34, 34, 34, 81, 34, 34, 34,
    35, 35, 35, 81, 35, 35, 35,
    36, 36, 36, 81, 36, 36, 36,
    37, 37, 37, 81, 37, 37, 37,
    38, 38, 38, 81, 38, 38, 38,
    39, 39, 39, 81, 39, 39, 39,
    40, 40, 40, 81, 40, 40, 40,
    22, 22, 22, 81, 22, 22, 22,
    41, 41, 41, 81, 41, 41, 41,
    42, 42, 42, 81, 42, 42, 42,
    43, 43, 43, 81, 43, 43, 43,
    44, 44, 44, 81, 44, 44, 44,
    81, 81, 81, 45, 81, 81, 81,
    81, 81, 81, 46, 81, 81, 81,
    47, 47, 47, 81, 47, 47, 47,
    48, 48, 48, 81, 48, 48, 48,
    49, 49, 49, 81, 49, 49, 49,
    50, 50, 50, 81, 50, 50, 50,
    51, 51, 51, 81, 51, 51, 51,
    52, 52, 52, 81, 52, 52, 52,
    53, 53, 53, 81, 53, 53, 53,
    54, 54, 54, 81, 54, 54, 54,
    55, 55, 55, 81, 55, 55, 55,
    56, 56, 56, 81, 56, 56, 56,
    57, 57, 57, 81, 57, 57, 57,
    58, 58, 58, 81, 58, 58, 58,
    81, 81, 81, 59, 81, 81, 81,
    81, 81, 81, 60, 81, 81, 81,
    61, 61, 61, 81, 61, 61, 61,
    62, 62, 62, 81, 62, 62, 62,
    63, 63, 63, 81, 63, 63, 63,
    64, 64, 64, 81, 64, 64, 64,
    65, 65, 65, 81, 65, 65, 65,
    66, 66, 66, 81, 66, 66, 66,
    67, 67, 67, 81, 67, 67, 67,
    68, 68, 68, 81, 68, 68, 68,
    69, 69, 69, 81, 69, 69, 69,
    70, 70, 70, 81, 70, 70, 70,
    71, 71, 71, 81, 71, 71, 71,
    72, 72, 72, 81, 72, 72, 72,
    81, 81, 81, 73, 81, 81, 81,
    81, 81, 81, 74, 81, 81, 81,
    75, 75, 75, 81, 75, 75, 75,
    76, 76, 76, 81, 76, 76, 76,
    77, 77, 77, 81, 77, 77, 77,
    29, 29, 29, 81, 29, 29, 29,
    78, 78, 78, 81, 78, 78, 78,
    79, 79, 79, 81, 79, 79, 79,
    80, 80, 80, 81, 80, 80, 80,
    18, 18, 18, 22, 18, 18, 18,
    81, 81, 81, 81, 81, 81, 81,

  % k = 5
    1, 1, 1, 1, 2, 1, 1,
    3, 3, 3, 3, 4, 3, 3,
    5, 5, 5, 5, 36, 5, 5,
    6, 6, 6, 6, 7, 6, 6,
    8, 8, 8, 8, 36, 8, 8,
    9, 9, 9, 9, 36, 9, 9,
    10, 10, 10, 10, 36, 10, 10,
    11, 11, 11, 11, 36, 11, 11,
    12, 12, 12, 12, 36, 12, 12,
    13, 13, 13, 13, 36, 13, 13,
    14, 14, 14, 14, 36, 14, 14,
    15, 15, 15, 15, 36, 15, 15,
    16, 16, 16, 16, 36, 16, 16,
    17, 17, 17, 17, 18, 17, 17,
    19, 19, 19, 19, 20, 19, 19,
    21, 21, 21, 21, 36, 21, 21,
    36, 36, 36, 36, 18, 36, 36,
    36, 36, 36, 36, 22, 36, 36,
    36, 36, 36, 36, 23, 36, 36,
    36, 36, 36, 36, 24, 36, 36,
    20, 20, 20, 20, 24, 20, 20,
    25, 25, 25, 25, 36, 25, 25,
    36, 36, 36, 36, 26, 36, 36,
    36, 36, 36, 36, 27, 36, 36,
    28, 28, 28, 28, 36, 28, 28,
    29, 29, 29, 29, 27, 29, 29,
    27, 27, 27, 27, 36, 27, 27,
    30, 30, 30, 30, 36, 30, 30,
    31, 31, 31, 31, 36, 31, 31,
    32, 32, 32, 32, 36, 32, 32,
    33, 33, 33, 33, 36, 33, 33,
    20, 20, 20, 20, 36, 20, 20,
    34, 34, 34, 34, 36, 34, 34,
    35, 35, 35, 35, 36, 35, 35,
    24, 24, 24, 24, 27, 24, 24,
    36, 36, 36, 36, 36, 36, 36,
    0, 0, 0, 0, 0, 0, 0,
    0, 0, 0, 0, 0, 0, 0,
    0, 0, 0, 0, 0, 0, 0,
    0, 0, 0, 0, 0, 0, 0,
    0, 0, 0, 0, 0, 0, 0,
    0, 0, 0, 0, 0, 0, 0,
    0, 0, 0, 0, 0, 0, 0,
    0, 0, 0, 0, 0, 0, 0,
    0, 0, 0, 0, 0, 0, 0,
    0, 0, 0, 0, 0, 0, 0,
    0, 0, 0, 0, 0, 0, 0,
    0, 0, 0, 0, 0, 0, 0,
    0, 0, 0, 0, 0, 0, 0,
    0, 0, 0, 0, 0, 0, 0,
    0, 0, 0, 0, 0, 0, 0,
    0, 0, 0, 0, 0, 0, 0,
    0, 0, 0, 0, 0, 0, 0,
    0, 0, 0, 0, 0, 0, 0,
    0, 0, 0, 0, 0, 0, 0,
    0, 0, 0, 0, 0, 0, 0,
    0, 0, 0, 0, 0, 0, 0,
    0, 0, 0, 0, 0, 0, 0,
    0, 0, 0, 0, 0, 0, 0,
    0, 0, 0, 0, 0, 0, 0,
    0, 0, 0, 0, 0, 0, 0,
    0, 0, 0, 0, 0, 0, 0,
    0, 0, 0, 0, 0, 0, 0,
    0, 0, 0, 0, 0, 0, 0,
    0, 0, 0, 0, 0, 0, 0,
    0, 0, 0, 0, 0, 0, 0,
    0, 0, 0, 0, 0, 0, 0,
    0, 0, 0, 0, 0, 0, 0,
    0, 0, 0, 0, 0, 0, 0,
    0, 0, 0, 0, 0, 0, 0,
    0, 0, 0, 0, 0, 0, 0,
    0, 0, 0, 0, 0, 0, 0,
    0, 0, 0, 0, 0, 0, 0,
    0, 0, 0, 0, 0, 0, 0,
    0, 0, 0, 0, 0, 0, 0,
    0, 0, 0, 0, 0, 0, 0,
    0, 0, 0, 0, 0, 0, 0,
    0, 0, 0, 0, 0, 0, 0,
    0, 0, 0, 0, 0, 0, 0,
    0, 0, 0, 0, 0, 0, 0,
    0, 0, 0, 0, 0, 0, 0,

  % k = 6
    1, 1, 1, 1, 1, 2, 1,
    2, 2, 2, 2, 2, 3, 2,
    3, 3, 3, 3, 3, 3, 3,
    0, 0, 0, 0, 0, 0, 0,
    0, 0, 0, 0, 0, 0, 0,
    0, 0, 0, 0, 0, 0, 0,
    0, 0, 0, 0, 0, 0, 0,
    0, 0, 0, 0, 0, 0, 0,
    0, 0, 0, 0, 0, 0, 0,
    0, 0, 0, 0, 0, 0, 0,
    0, 0, 0, 0, 0, 0, 0,
    0, 0, 0, 0, 0, 0, 0,
    0, 0, 0, 0, 0, 0, 0,
    0, 0, 0, 0, 0, 0, 0,
    0, 0, 0, 0, 0, 0, 0,
    0, 0, 0, 0, 0, 0, 0,
    0, 0, 0, 0, 0, 0, 0,
    0, 0, 0, 0, 0, 0, 0,
    0, 0, 0, 0, 0, 0, 0,
    0, 0, 0, 0, 0, 0, 0,
    0, 0, 0, 0, 0, 0, 0,
    0, 0, 0, 0, 0, 0, 0,
    0, 0, 0, 0, 0, 0, 0,
    0, 0, 0, 0, 0, 0, 0,
    0, 0, 0, 0, 0, 0, 0,
    0, 0, 0, 0, 0, 0, 0,
    0, 0, 0, 0, 0, 0, 0,
    0, 0, 0, 0, 0, 0, 0,
    0, 0, 0, 0, 0, 0, 0,
    0, 0, 0, 0, 0, 0, 0,
    0, 0, 0, 0, 0, 0, 0,
    0, 0, 0, 0, 0, 0, 0,
    0, 0, 0, 0, 0, 0, 0,
    0, 0, 0, 0, 0, 0, 0,
    0, 0, 0, 0, 0, 0, 0,
    0, 0, 0, 0, 0, 0, 0,
    0, 0, 0, 0, 0, 0, 0,
    0, 0, 0, 0, 0, 0, 0,
    0, 0, 0, 0, 0, 0, 0,
    0, 0, 0, 0, 0, 0, 0,
    0, 0, 0, 0, 0, 0, 0,
    0, 0, 0, 0, 0, 0, 0,
    0, 0, 0, 0, 0, 0, 0,
    0, 0, 0, 0, 0, 0, 0,
    0, 0, 0, 0, 0, 0, 0,
    0, 0, 0, 0, 0, 0, 0,
    0, 0, 0, 0, 0, 0, 0,
    0, 0, 0, 0, 0, 0, 0,
    0, 0, 0, 0, 0, 0, 0,
    0, 0, 0, 0, 0, 0, 0,
    0, 0, 0, 0, 0, 0, 0,
    0, 0, 0, 0, 0, 0, 0,
    0, 0, 0, 0, 0, 0, 0,
    0, 0, 0, 0, 0, 0, 0,
    0, 0, 0, 0, 0, 0, 0,
    0, 0, 0, 0, 0, 0, 0,
    0, 0, 0, 0, 0, 0, 0,
    0, 0, 0, 0, 0, 0, 0,
    0, 0, 0, 0, 0, 0, 0,
    0, 0, 0, 0, 0, 0, 0,
    0, 0, 0, 0, 0, 0, 0,
    0, 0, 0, 0, 0, 0, 0,
    0, 0, 0, 0, 0, 0, 0,
    0, 0, 0, 0, 0, 0, 0,
    0, 0, 0, 0, 0, 0, 0,
    0, 0, 0, 0, 0, 0, 0,
    0, 0, 0, 0, 0, 0, 0,
    0, 0, 0, 0, 0, 0, 0,
    0, 0, 0, 0, 0, 0, 0,
    0, 0, 0, 0, 0, 0, 0,
    0, 0, 0, 0, 0, 0, 0,
    0, 0, 0, 0, 0, 0, 0,
    0, 0, 0, 0, 0, 0, 0,
    0, 0, 0, 0, 0, 0, 0,
    0, 0, 0, 0, 0, 0, 0,
    0, 0, 0, 0, 0, 0, 0,
    0, 0, 0, 0, 0, 0, 0,
    0, 0, 0, 0, 0, 0, 0,
    0, 0, 0, 0, 0, 0, 0,
    0, 0, 0, 0, 0, 0, 0,
    0, 0, 0, 0, 0, 0, 0
]);
d_nfa = array3d(1..6, 1..81, 1..7, [
  % k = 1
    {}, {}, {}, {}, {}, {}, {},
    {}, {}, {}, {}, {}, {}, {},
    {}, {}, {}, {}, {}, {}, {},
    {}, {}, {}, {}, {}, {}, {},
    {}, {}, {}, {}, {}, {}, {},
    {}, {}, {}, {}, {}, {}, {},
    {}, {}, {}, {}, {}, {}, {},
    {}, {}, {}, {}, {}, {}, {},
    {}, {}, {}, {}, {}, {}, {},
    {}, {}, {}, {}, {}, {}, {},
    {}, {}, {}, {}, {}, {}, {},
    {}, {}, {}, {}, {}, {}, {},
    {}, {}, {}, {}, {}, {}, {},
    {}, {}, {}, {}, {}, {}, {},
    {}, {}, {}, {}, {}, {}, {},
    {}, {}, {}, {}, {}, {}, {},
    {}, {}, {}, {}, {}, {}, {},
    {}, {}, {}, {}, {}, {}, {},
    {}, {}, {}, {}, {}, {}, {},
    {}, {}, {}, {}, {}, {}, {},
    {}, {}, {}, {}, {}, {}, {},
    {}, {}, {}, {}, {}, {}, {},
    {}, {}, {}, {}, {}, {}, {},
    {}, {}, {}, {}, {}, {}, {},
    {}, {}, {}, {}, {}, {}, {},
    {}, {}, {}, {}, {}, {}, {},
    {}, {}, {}, {}, {}, {}, {},
    {}, {}, {}, {}, {}, {}, {},
    {}, {}, {}, {}, {}, {}, {},
    {}, {}, {}, {}, {}, {}, {},
    {}, {}, {}, {}, {}, {}, {},
    {}, {}, {}, {}, {}, {}, {},
    {}, {}, {}, {}, {}, {}, {},
    {}, {}, {}, {}, {}, {}, {},
    {}, {}, {}, {}, {}, {}, {},
    {}, {}, {}, {}, {}, {}, {},
    {}, {}, {}, {}, {}, {}, {},
    {}, {}, {}, {}, {}, {}, {},
    {}, {}, {}, {}, {}, {}, {},
    {}, {}, {}, {}, {}, {}, {},
    {}, {}, {}, {}, {}, {}, {},
    {}, {}, {}, {}, {}, {}, {},
    {}, {}, {}, {}, {}, {}, {},
    {}, {}, {}, {}, {}, {}, {},
    {}, {}, {}, {}, {}, {}, {},
    {}, {}, {}, {}, {}, {}, {},
    {}, {}, {}, {}, {}, {}, {},
    {}, {}, {}, {}, {}, {}, {},
    {}, {}, {}, {}, {}, {}, {},
    {}, {}, {}, {}, {}, {}, {},
    {}, {}, {}, {}, {}, {}, {},
    {}, {}, {}, {}, {}, {}, {},
    {}, {}, {}, {}, {}, {}, {},
    {}, {}, {}, {}, {}, {}, {},
    {}, {}, {}, {}, {}, {}, {},
    {}, {}, {}, {}, {}, {}, {},
    {}, {}, {}, {}, {}, {}, {},
    {}, {}, {}, {}, {}, {}, {},
    {}, {}, {}, {}, {}, {}, {},
    {}, {}, {}, {}, {}, {}, {},
    {}, {}, {}, {}, {}, {}, {},
    {}, {}, {}, {}, {}, {}, {},
    {}, {}, {}, {}, {}, {}, {},
    {}, {}, {}, {}, {}, {}, {},
    {}, {}, {}, {}, {}, {}, {},
    {}, {}, {}, {}, {}, {}, {},
    {}, {}, {}, {}, {}, {}, {},
    {}, {}, {}, {}, {}, {}, {},
    {}, {}, {}, {}, {}, {}, {},
    {}, {}, {}, {}, {}, {}, {},
    {}, {}, {}, {}, {}, {}, {},
    {}, {}, {}, {}, {}, {}, {},
    {}, {}, {}, {}, {}, {}, {},
    {}, {}, {}, {}, {}, {}, {},
    {}, {}, {}, {}, {}, {}, {},
    {}, {}, {}, {}, {}, {}, {},
    {}, {}, {}, {}, {}, {}, {},
    {}, {}, {}, {}, {}, {}, {},
    {}, {}, {}, {}, {}, {}, {},
    {}, {}, {}, {}, {}, {}, {},
    {}, {}, {}, {}, {}, {}, {},

  % k = 2
    {}, {}, {}, {}, {}, {}, {},
    {}, {}, {}, {}, {}, {}, {},
    {}, {}, {}, {}, {}, {}, {},
    {}, {}, {}, {}, {}, {}, {},
    {}, {}, {}, {}, {}, {}, {},
    {}, {}, {}, {}, {}, {}, {},
    {}, {}, {}, {}, {}, {}, {},
    {}, {}, {}, {}, {}, {}, {},
    {}, {}, {}, {}, {}, {}, {},
    {}, {}, {}, {}, {}, {}, {},
    {}, {}, {}, {}, {}, {}, {},
    {}, {}, {}, {}, {}, {}, {},
    {}, {}, {}, {}, {}, {}, {},
    {}, {}, {}, {}, {}, {}, {},
    {}, {}, {}, {}, {}, {}, {},
    {}, {}, {}, {}, {}, {}, {},
    {}, {}, {}, {}, {}, {}, {},
    {}, {}, {}, {}, {}, {}, {},
    {}, {}, {}, {}, {}, {}, {},
    {}, {}, {}, {}, {}, {}, {},
    {}, {}, {}, {}, {}, {}, {},
    {}, {}, {}, {}, {}, {}, {},
    {}, {}, {}, {}, {}, {}, {},
    {}, {}, {}, {}, {}, {}, {},
    {}, {}, {}, {}, {}, {}, {},
    {}, {}, {}, {}, {}, {}, {},
    {}, {}, {}, {}, {}, {}, {},
    {}, {}, {}, {}, {}, {}, {},
    {}, {}, {}, {}, {}, {}, {},
    {}, {}, {}, {}, {}, {}, {},
    {}, {}, {}, {}, {}, {}, {},
    {}, {}, {}, {}, {}, {}, {},
    {}, {}, {}, {}, {}, {}, {},
    {}, {}, {}, {}, {}, {}, {},
    {}, {}, {}, {}, {}, {}, {},
    {}, {}, {}, {}, {}, {}, {},
    {}, {}, {}, {}, {}, {}, {},
    {}, {}, {}, {}, {}, {}, {},
    {}, {}, {}, {}, {}, {}, {},
    {}, {}, {}, {}, {}, {}, {},
    {}, {}, {}, {}, {}, {}, {},
    {}, {}, {}, {}, {}, {}, {},
    {}, {}, {}, {}, {}, {}, {},
    {}, {}, {}, {}, {}, {}, {},
    {}, {}, {}, {}, {}, {}, {},
    {}, {}, {}, {}, {}, {}, {},
    {}, {}, {}, {}, {}, {}, {},
    {}, {}, {}, {}, {}, {}, {},
    {}, {}, {}, {}, {}, {}, {},
    {}, {}, {}, {}, {}, {}, {},
    {}, {}, {}, {}, {}, {}, {},
    {}, {}, {}, {}, {}, {}, {},
    {}, {}, {}, {}, {}, {}, {},
    {}, {}, {}, {}, {}, {}, {},
    {}, {}, {}, {}, {}, {}, {},
    {}, {}, {}, {}, {}, {}, {},
    {}, {}, {}, {}, {}, {}, {},
    {}, {}, {}, {}, {}, {}, {},
    {}, {}, {}, {}, {}, {}, {},
    {}, {}, {}, {}, {}, {}, {},
    {}, {}, {}, {}, {}, {}, {},
    {}, {}, {}, {}, {}, {}, {},
    {}, {}, {}, {}, {}, {}, {},
    {}, {}, {}, {}, {}, {}, {},
    {}, {}, {}, {}, {}, {}, {},
    {}, {}, {}, {}, {}, {}, {},
    {}, {}, {}, {}, {}, {}, {},
    {}, {}, {}, {}, {}, {}, {},
    {}, {}, {}, {}, {}, {}, {},
    {}, {}, {}, {}, {}, {}, {},
    {}, {}, {}, {}, {}, {}, {},
    {}, {}, {}, {}, {}, {}, {},
    {}, {}, {}, {}, {}, {}, {},
    {}, {}, {}, {}, {}, {}, {},
    {}, {}, {}, {}, {}, {}, {},
    {}, {}, {}, {}, {}, {}, {},
    {}, {}, {}, {}, {}, {}, {},
    {}, {}, {}, {}, {}, {}, {},
    {}, {}, {}, {}, {}, {}, {},
    {}, {}, {}, {}, {}, {}, {},
    {}, {}, {}, {}, {}, {}, {},

  % k = 3
    {}, {}, {}, {}, {}, {}, {},
    {}, {}, {}, {}, {}, {}, {},
    {}, {}, {}, {}, {}, {}, {},
    {}, {}, {}, {}, {}, {}, {},
    {}, {}, {}, {}, {}, {}, {},
    {}, {}, {}, {}, {}, {}, {},
    {}, {}, {}, {}, {}, {}, {},
    {}, {}, {}, {}, {}, {}, {},
    {}, {}, {}, {}, {}, {}, {},
    {}, {}, {}, {}, {}, {}, {},
    {}, {}, {}, {}, {}, {}, {},
    {}, {}, {}, {}, {}, {}, {},
    {}, {}, {}, {}, {}, {}, {},
    {}, {}, {}, {}, {}, {}, {},
    {}, {}, {}, {}, {}, {}, {},
    {}, {}, {}, {}, {}, {}, {},
    {}, {}, {}, {}, {}, {}, {},
    {}, {}, {}, {}, {}, {}, {},
    {}, {}, {}, {}, {}, {}, {},
    {}, {}, {}, {}, {}, {}, {},
    {}, {}, {}, {}, {}, {}, {},
    {}, {}, {}, {}, {}, {}, {},
    {}, {}, {}, {}, {}, {}, {},
    {}, {}, {}, {}, {}, {}, {},
    {}, {}, {}, {}, {}, {}, {},
    {}, {}, {}, {}, {}, {}, {},
    {}, {}, {}, {}, {}, {}, {},
    {}, {}, {}, {}, {}, {}, {},
    {}, {}, {}, {}, {}, {}, {},
    {}, {}, {}, {}, {}, {}, {},
    {}, {}, {}, {}, {}, {}, {},
    {}, {}, {}, {}, {}, {}, {},
    {}, {}, {}, {}, {}, {}, {},
    {}, {}, {}, {}, {}, {}, {},
    {}, {}, {}, {}, {}, {}, {},
    {}, {}, {}, {}, {}, {}, {},
    {}, {}, {}, {}, {}, {}, {},
    {}, {}, {}, {}, {}, {}, {},
    {}, {}, {}, {}, {}, {}, {},
    {}, {}, {}, {}, {}, {}, {},
    {}, {}, {}, {}, {}, {}, {},
    {}, {}, {}, {}, {}, {}, {},
    {}, {}, {}, {}, {}, {}, {},
    {}, {}, {}, {}, {}, {}, {},
    {}, {}, {}, {}, {}, {}, {},
    {}, {}, {}, {}, {}, {}, {},
    {}, {}, {}, {}, {}, {}, {},
    {}, {}, {}, {}, {}, {}, {},
    {}, {}, {}, {}, {}, {}, {},
    {}, {}, {}, {}, {}, {}, {},
    {}, {}, {}, {}, {}, {}, {},
    {}, {}, {}, {}, {}, {}, {},
    {}, {}, {}, {}, {}, {}, {},
    {}, {}, {}, {}, {}, {}, {},
    {}, {}, {}, {}, {}, {}, {},
    {}, {}, {}, {}, {}, {}, {},
    {}, {}, {}, {}, {}, {}, {},
    {}, {}, {}, {}, {}, {}, {},
    {}, {}, {}, {}, {}, {}, {},
    {}, {}, {}, {}, {}, {}, {},
    {}, {}, {}, {}, {}, {}, {},
    {}, {}, {}, {}, {}, {}, {},
    {}, {}, {}, {}, {}, {}, {},
    {}, {}, {}, {}, {}, {}, {},
    {}, {}, {}, {}, {}, {}, {},
    {}, {}, {}, {}, {}, {}, {},
    {}, {}, {}, {}, {}, {}, {},
    {}, {}, {}, {}, {}, {}, {},
    {}, {}, {}, {}, {}, {}, {},
    {}, {}, {}, {}, {}, {}, {},
    {}, {}, {}, {}, {}, {}, {},
    {}, {}, {}, {}, {}, {}, {},
    {}, {}, {}, {}, {}, {}, {},
    {}, {}, {}, {}, {}, {}, {},
    {}, {}, {}, {}, {}, {}, {},
    {}, {}, {}, {}, {}, {}, {},
    {}, {}, {}, {}, {}, {}, {},
    {}, {}, {}, {}, {}, {}, {},
    {}, {}, {}, {}, {}, {}, {},
    {}, {}, {}, {}, {}, {}, {},
    {}, {}, {}, {}, {}, {}, {},

  % k = 4
    {}, {}, {}, {}, {}, {}, {},
    {}, {}, {}, {}, {}, {}, {},
    {}, {}, {}, {}, {}, {}, {},
    {}, {}, {}, {}, {}, {}, {},
    {}, {}, {}, {}, {}, {}, {},
    {}, {}, {}, {}, {}, {}, {},
    {}, {}, {}, {}, {}, {}, {},
    {}, {}, {}, {}, {}, {}, {},
    {}, {}, {}, {}, {}, {}, {},
    {}, {}, {}, {}, {}, {}, {},
    {}, {}, {}, {}, {}, {}, {},
    {}, {}, {}, {}, {}, {}, {},
    {}, {}, {}, {}, {}, {}, {},
    {}, {}, {}, {}, {}, {}, {},
    {}, {}, {}, {}, {}, {}, {},
    {}, {}, {}, {}, {}, {}, {},
    {}, {}, {}, {}, {}, {}, {},
    {}, {}, {}, {}, {}, {}, {},
    {}, {}, {}, {}, {}, {}, {},
    {}, {}, {}, {}, {}, {}, {},
    {}, {}, {}, {}, {}, {}, {},
    {}, {}, {}, {}, {}, {}, {},
    {}, {}, {}, {}, {}, {}, {},
    {}, {}, {}, {}, {}, {}, {},
    {}, {}, {}, {}, {}, {}, {},
    {}, {}, {}, {}, {}, {}, {},
    {}, {}, {}, {}, {}, {}, {},
    {}, {}, {}, {}, {}, {}, {},
    {}, {}, {}, {}, {}, {}, {},
    {}, {}, {}, {}, {}, {}, {},
    {}, {}, {}, {}, {}, {}, {},
    {}, {}, {}, {}, {}, {}, {},
    {}, {}, {}, {}, {}, {}, {},
    {}, {}, {}, {}, {}, {}, {},
    {}, {}, {}, {}, {}, {}, {},
    {}, {}, {}, {}, {}, {}, {},
    {}, {}, {}, {}, {}, {}, {},
    {}, {}, {}, {}, {}, {}, {},
    {}, {}, {}, {}, {}, {}, {},
    {}, {}, {}, {}, {}, {}, {},
    {}, {}, {}, {}, {}, {}, {},
    {}, {}, {}, {}, {}, {}, {},
    {}, {}, {}, {}, {}, {}, {},
    {}, {}, {}, {}, {}, {}, {},
    {}, {}, {}, {}, {}, {}, {},
    {}, {}, {}, {}, {}, {}, {},
    {}, {}, {}, {}, {}, {}, {},
    {}, {}, {}, {}, {}, {}, {},
    {}, {}, {}, {}, {}, {}, {},
    {}, {}, {}, {}, {}, {}, {},
    {}, {}, {}, {}, {}, {}, {},
    {}, {}, {}, {}, {}, {}, {},
    {}, {}, {}, {}, {}, {}, {},
    {}, {}, {}, {}, {}, {}, {},
    {}, {}, {}, {}, {}, {}, {},
    {}, {}, {}, {}, {}, {}, {},
    {}, {}, {}, {}, {}, {}, {},
    {}, {}, {}, {}, {}, {}, {},
    {}, {}, {}, {}, {}, {}, {},
    {}, {}, {}, {}, {}, {}, {},
    {}, {}, {}, {}, {}, {}, {},
    {}, {}, {}, {}, {}, {}, {},
    {}, {}, {}, {}, {}, {}, {},
    {}, {}, {}, {}, {}, {}, {},
    {}, {}, {}, {}, {}, {}, {},
    {}, {}, {}, {}, {}, {}, {},
    {}, {}, {}, {}, {}, {}, {},
    {}, {}, {}, {}, {}, {}, {},
    {}, {}, {}, {}, {}, {}, {},
    {}, {}, {}, {}, {}, {}, {},
    {}, {}, {}, {}, {}, {}, {},
    {}, {}, {}, {}, {}, {}, {},
    {}, {}, {}, {}, {}, {}, {},
    {}, {}, {}, {}, {}, {}, {},
    {}, {}, {}, {}, {}, {}, {},
    {}, {}, {}, {}, {}, {}, {},
    {}, {}, {}, {}, {}, {}, {},
    {}, {}, {}, {}, {}, {}, {},
    {}, {}, {}, {}, {}, {}, {},
    {}, {}, {}, {}, {}, {}, {},
    {}, {}, {}, {}, {}, {}, {},

  % k = 5
    {}, {}, {}, {}, {}, {}, {},
    {}, {}, {}, {}, {}, {}, {},
    {}, {}, {}, {}, {}, {}, {},
    {}, {}, {}, {}, {}, {}, {},
    {}, {}, {}, {}, {}, {}, {},
    {}, {}, {}, {}, {}, {}, {},
    {}, {}, {}, {}, {}, {}, {},
    {}, {}, {}, {}, {}, {}, {},
    {}, {}, {}, {}, {}, {}, {},
    {}, {}, {}, {}, {}, {}, {},
    {}, {}, {}, {}, {}, {}, {},
    {}, {}, {}, {}, {}, {}, {},
    {}, {}, {}, {}, {}, {}, {},
    {}, {}, {}, {}, {}, {}, {},
    {}, {}, {}, {}, {}, {}, {},
    {}, {}, {}, {}, {}, {}, {},
    {}, {}, {}, {}, {}, {}, {},
    {}, {}, {}, {}, {}, {}, {},
    {}, {}, {}, {}, {}, {}, {},
    {}, {}, {}, {}, {}, {}, {},
    {}, {}, {}, {}, {}, {}, {},
    {}, {}, {}, {}, {}, {}, {},
    {}, {}, {}, {}, {}, {}, {},
    {}, {}, {}, {}, {}, {}, {},
    {}, {}, {}, {}, {}, {}, {},
    {}, {}, {}, {}, {}, {}, {},
    {}, {}, {}, {}, {}, {}, {},
    {}, {}, {}, {}, {}, {}, {},
    {}, {}, {}, {}, {}, {}, {},
    {}, {}, {}, {}, {}, {}, {},
    {}, {}, {}, {}, {}, {}, {},
    {}, {}, {}, {}, {}, {}, {},
    {}, {}, {}, {}, {}, {}, {},
    {}, {}, {}, {}, {}, {}, {},
    {}, {}, {}, {}, {}, {}, {},
    {}, {}, {}, {}, {}, {}, {},
    {}, {}, {}, {}, {}, {}, {},
    {}, {}, {}, {}, {}, {}, {},
    {}, {}, {}, {}, {}, {}, {},
    {}, {}, {}, {}, {}, {}, {},
    {}, {}, {}, {}, {}, {}, {},
    {}, {}, {}, {}, {}, {}, {},
    {}, {}, {}, {}, {}, {}, {},
    {}, {}, {}, {}, {}, {}, {},
    {}, {}, {}, {}, {}, {}, {},
    {}, {}, {}, {}, {}, {}, {},
    {}, {}, {}, {}, {}, {}, {},
    {}, {}, {}, {}, {}, {}, {},
    {}, {}, {}, {}, {}, {}, {},
    {}, {}, {}, {}, {}, {}, {},
    {}, {}, {}, {}, {}, {}, {},
    {}, {}, {}, {}, {}, {}, {},
    {}, {}, {}, {}, {}, {}, {},
    {}, {}, {}, {}, {}, {}, {},
    {}, {}, {}, {}, {}, {}, {},
    {}, {}, {}, {}, {}, {}, {},
    {}, {}, {}, {}, {}, {}, {},
    {}, {}, {}, {}, {}, {}, {},
    {}, {}, {}, {}, {}, {}, {},
    {}, {}, {}, {}, {}, {}, {},
    {}, {}, {}, {}, {}, {}, {},
    {}, {}, {}, {}, {}, {}, {},
    {}, {}, {}, {}, {}, {}, {},
    {}, {}, {}, {}, {}, {}, {},
    {}, {}, {}, {}, {}, {}, {},
    {}, {}, {}, {}, {}, {}, {},
    {}, {}, {}, {}, {}, {}, {},
    {}, {}, {}, {}, {}, {}, {},
    {}, {}, {}, {}, {}, {}, {},
    {}, {}, {}, {}, {}, {}, {},
    {}, {}, {}, {}, {}, {}, {},
    {}, {}, {}, {}, {}, {}, {},
    {}, {}, {}, {}, {}, {}, {},
    {}, {}, {}, {}, {}, {}, {},
    {}, {}, {}, {}, {}, {}, {},
    {}, {}, {}, {}, {}, {}, {},
    {}, {}, {}, {}, {}, {}, {},
    {}, {}, {}, {}, {}, {}, {},
    {}, {}, {}, {}, {}, {}, {},
    {}, {}, {}, {}, {}, {}, {},
    {}, {}, {}, {}, {}, {}, {},

  % k = 6
    {}, {}, {}, {}, {}, {}, {},
    {}, {}, {}, {}, {}, {}, {},
    {}, {}, {}, {}, {}, {}, {},
    {}, {}, {}, {}, {}, {}, {},
    {}, {}, {}, {}, {}, {}, {},
    {}, {}, {}, {}, {}, {}, {},
    {}, {}, {}, {}, {}, {}, {},
    {}, {}, {}, {}, {}, {}, {},
    {}, {}, {}, {}, {}, {}, {},
    {}, {}, {}, {}, {}, {}, {},
    {}, {}, {}, {}, {}, {}, {},
    {}, {}, {}, {}, {}, {}, {},
    {}, {}, {}, {}, {}, {}, {},
    {}, {}, {}, {}, {}, {}, {},
    {}, {}, {}, {}, {}, {}, {},
    {}, {}, {}, {}, {}, {}, {},
    {}, {}, {}, {}, {}, {}, {},
    {}, {}, {}, {}, {}, {}, {},
    {}, {}, {}, {}, {}, {}, {},
    {}, {}, {}, {}, {}, {}, {},
    {}, {}, {}, {}, {}, {}, {},
    {}, {}, {}, {}, {}, {}, {},
    {}, {}, {}, {}, {}, {}, {},
    {}, {}, {}, {}, {}, {}, {},
    {}, {}, {}, {}, {}, {}, {},
    {}, {}, {}, {}, {}, {}, {},
    {}, {}, {}, {}, {}, {}, {},
    {}, {}, {}, {}, {}, {}, {},
    {}, {}, {}, {}, {}, {}, {},
    {}, {}, {}, {}, {}, {}, {},
    {}, {}, {}, {}, {}, {}, {},
    {}, {}, {}, {}, {}, {}, {},
    {}, {}, {}, {}, {}, {}, {},
    {}, {}, {}, {}, {}, {}, {},
    {}, {}, {}, {}, {}, {}, {},
    {}, {}, {}, {}, {}, {}, {},
    {}, {}, {}, {}, {}, {}, {},
    {}, {}, {}, {}, {}, {}, {},
    {}, {}, {}, {}, {}, {}, {},
    {}, {}, {}, {}, {}, {}, {},
    {}, {}, {}, {}, {}, {}, {},
    {}, {}, {}, {}, {}, {}, {},
    {}, {}, {}, {}, {}, {}, {},
    {}, {}, {}, {}, {}, {}, {},
    {}, {}, {}, {}, {}, {}, {},
    {}, {}, {}, {}, {}, {}, {},
    {}, {}, {}, {}, {}, {}, {},
    {}, {}, {}, {}, {}, {}, {},
    {}, {}, {}, {}, {}, {}, {},
    {}, {}, {}, {}, {}, {}, {},
    {}, {}, {}, {}, {}, {}, {},
    {}, {}, {}, {}, {}, {}, {},
    {}, {}, {}, {}, {}, {}, {},
    {}, {}, {}, {}, {}, {}, {},
    {}, {}, {}, {}, {}, {}, {},
    {}, {}, {}, {}, {}, {}, {},
    {}, {}, {}, {}, {}, {}, {},
    {}, {}, {}, {}, {}, {}, {},
    {}, {}, {}, {}, {}, {}, {},
    {}, {}, {}, {}, {}, {}, {},
    {}, {}, {}, {}, {}, {}, {},
    {}, {}, {}, {}, {}, {}, {},
    {}, {}, {}, {}, {}, {}, {},
    {}, {}, {}, {}, {}, {}, {},
    {}, {}, {}, {}, {}, {}, {},
    {}, {}, {}, {}, {}, {}, {},
    {}, {}, {}, {}, {}, {}, {},
    {}, {}, {}, {}, {}, {}, {},
    {}, {}, {}, {}, {}, {}, {},
    {}, {}, {}, {}, {}, {}, {},
    {}, {}, {}, {}, {}, {}, {},
    {}, {}, {}, {}, {}, {}, {},
    {}, {}, {}, {}, {}, {}, {},
    {}, {}, {}, {}, {}, {}, {},
    {}, {}, {}, {}, {}, {}, {},
    {}, {}, {}, {}, {}, {}, {},
    {}, {}, {}, {}, {}, {}, {},
    {}, {}, {}, {}, {}, {}, {},
    {}, {}, {}, {}, {}, {}, {},
    {}, {}, {}, {}, {}, {}, {},
    {}, {}, {}, {}, {}, {}, {}
]);
